data/my/1.opb
* #variable= 8 #constraint= 6 #product= 15 sizeproduct= 8
min: 1 x2 x1 1 x4 x3 1 x6 x5 1 x8 x7 ;
1 x2 ~x1 1 x2 x1 >= 1;
1 x1 ~x2 1 x3 ~x4 1 x1 x2 x3 x4 >= 1;
1 x4 ~x3 1 x4 x3 >= 1;
1 x3 ~x4 1 x5 ~x6 1 x3 x4 x5 x6 >= 1;
1 x6 ~x5 1 x6 x5 >= 1;
1 x8 ~x7 1 x5 ~x6 1 x8 x7 x5 x6 >= 1;
