data/my/1.wcnf
c A temporal KB for measuring ID
p wcnf 16 10
5 3 0
5 4 8 0
5 7 0
5 8 12 0
5 11 0
5 15 12 0
1 -3 -4 0
1 -7 -8 0
1 -11 -12 0
1 -15 -16 0
